n_students = 100;
n_companies = 15;
best_expectations = [3, 4, 3, 5, 4, 4, 3, 4, 3, 4, 3, 6, 6, 6, 4, 5, 5, 3, 4, 4, 3, 4, 5, 6, 4, 3, 5, 3, 5, 4, 5, 5, 4, 3, 6, 4, 4, 3, 5, 4, 3, 3, 3, 3, 5, 4, 4, 5, 3, 5, 3, 4, 3, 4, 3, 6, 5, 5, 5, 5, 3, 6, 6, 4, 4, 4, 5, 4, 3, 3, 3, 3, 3, 3, 3, 4, 6, 4, 5, 3, 5, 4, 4, 4, 4, 3, 5, 5, 4, 3, 6, 3, 4, 4, 4, 4, 5, 4, 3, 4];
preferences = 
 [|2, 3, 4, 1, 1, 3, 3, 5, 3, 3, 1, 1, 5, 1, 4
  |5, 2, 2, 5, 1, 1, 3, 2, 4, 3, 2, 5, 5, 5, 5
  |1, 3, 4, 2, 2, 1, 3, 2, 5, 2, 5, 1, 2, 5, 4
  |5, 3, 4, 2, 4, 2, 5, 5, 1, 5, 5, 2, 5, 4, 5
  |2, 5, 5, 1, 1, 2, 4, 2, 4, 2, 4, 2, 3, 3, 3
  |2, 4, 5, 5, 1, 3, 5, 4, 1, 3, 5, 3, 4, 3, 3
  |3, 4, 1, 1, 1, 1, 4, 3, 4, 5, 5, 1, 5, 3, 4
  |5, 4, 1, 2, 1, 3, 3, 5, 5, 5, 4, 3, 5, 2, 5
  |5, 2, 3, 1, 1, 3, 1, 2, 3, 5, 3, 5, 1, 3, 5
  |2, 1, 3, 5, 1, 4, 3, 5, 4, 5, 5, 5, 5, 2, 2
  |4, 3, 3, 1, 1, 4, 1, 5, 5, 4, 5, 1, 1, 3, 1
  |5, 4, 5, 4, 2, 1, 3, 5, 3, 3, 5, 4, 5, 5, 4
  |3, 5, 3, 5, 4, 4, 5, 3, 5, 2, 2, 3, 5, 3, 2
  |2, 4, 5, 4, 3, 2, 3, 2, 5, 4, 4, 2, 3, 5, 3
  |2, 3, 5, 5, 3, 1, 3, 5, 5, 5, 3, 2, 1, 5, 4
  |5, 2, 5, 5, 1, 5, 3, 3, 4, 4, 4, 5, 2, 2, 2
  |2, 2, 3, 5, 4, 4, 3, 5, 5, 1, 4, 4, 4, 3, 4
  |5, 2, 4, 1, 1, 1, 3, 5, 3, 5, 5, 4, 4, 3, 3
  |5, 5, 3, 5, 2, 1, 5, 1, 3, 3, 5, 4, 5, 2, 5
  |2, 5, 3, 1, 1, 4, 2, 5, 2, 2, 2, 4, 3, 5, 2
  |1, 5, 1, 1, 3, 2, 3, 2, 5, 3, 5, 2, 3, 5, 4
  |3, 2, 3, 3, 4, 2, 5, 5, 1, 3, 2, 5, 1, 2, 5
  |3, 4, 4, 1, 2, 2, 5, 2, 4, 3, 4, 3, 5, 3, 4
  |2, 4, 5, 3, 2, 3, 5, 5, 5, 5, 2, 4, 4, 2, 4
  |3, 2, 4, 3, 4, 1, 5, 5, 3, 5, 5, 1, 3, 2, 3
  |3, 1, 2, 5, 1, 5, 3, 4, 3, 5, 5, 5, 1, 3, 5
  |5, 5, 2, 1, 2, 2, 5, 2, 5, 3, 2, 3, 5, 3, 3
  |1, 5, 4, 1, 1, 4, 5, 2, 5, 2, 3, 4, 3, 2, 1
  |5, 2, 3, 4, 1, 2, 4, 5, 3, 5, 5, 2, 4, 2, 5
  |5, 4, 4, 4, 1, 1, 3, 2, 2, 5, 5, 4, 3, 2, 4
  |2, 5, 2, 3, 1, 2, 2, 5, 2, 5, 3, 2, 5, 2, 5
  |2, 3, 4, 2, 3, 1, 5, 2, 3, 4, 4, 2, 2, 2, 5
  |4, 5, 2, 5, 1, 4, 5, 3, 3, 5, 4, 5, 1, 2, 5
  |2, 2, 1, 2, 1, 4, 5, 5, 5, 2, 5, 1, 2, 5, 4
  |4, 5, 3, 3, 2, 4, 5, 2, 3, 2, 5, 3, 5, 3, 2
  |5, 4, 2, 5, 2, 1, 3, 4, 2, 5, 3, 1, 5, 3, 5
  |3, 2, 2, 5, 5, 1, 5, 1, 2, 3, 4, 4, 3, 5, 3
  |3, 4, 1, 5, 1, 4, 5, 5, 5, 3, 2, 2, 1, 3, 2
  |2, 5, 5, 4, 1, 3, 3, 5, 5, 5, 2, 2, 5, 5, 2
  |5, 3, 5, 3, 1, 5, 5, 2, 5, 2, 2, 1, 5, 2, 5
  |5, 2, 2, 2, 1, 1, 1, 3, 4, 5, 1, 1, 3, 2, 5
  |2, 3, 3, 1, 1, 1, 5, 4, 5, 3, 4, 5, 2, 3, 3
  |3, 3, 5, 1, 1, 4, 3, 2, 3, 3, 3, 1, 2, 2, 2
  |1, 5, 5, 2, 4, 5, 3, 3, 1, 3, 2, 4, 1, 5, 5
  |3, 3, 4, 5, 2, 2, 5, 1, 5, 3, 3, 4, 3, 3, 4
  |2, 2, 3, 1, 1, 2, 3, 5, 3, 5, 5, 5, 5, 4, 5
  |4, 3, 5, 5, 1, 5, 3, 2, 1, 5, 5, 5, 3, 2, 5
  |3, 2, 2, 4, 4, 3, 3, 5, 3, 3, 1, 3, 5, 3, 4
  |2, 2, 5, 1, 1, 2, 5, 3, 4, 4, 5, 3, 3, 2, 1
  |4, 2, 1, 3, 3, 3, 5, 5, 5, 5, 5, 4, 3, 5, 2
  |4, 5, 4, 4, 4, 1, 1, 4, 2, 4, 1, 1, 5, 5, 4
  |2, 4, 4, 3, 3, 5, 5, 5, 3, 1, 5, 2, 3, 3, 1
  |2, 5, 2, 2, 1, 2, 4, 4, 5, 5, 1, 1, 1, 3, 1
  |3, 5, 1, 1, 3, 4, 3, 2, 5, 4, 4, 2, 3, 5, 4
  |5, 3, 3, 1, 1, 2, 4, 5, 5, 5, 1, 4, 5, 1, 2
  |3, 2, 4, 2, 2, 2, 3, 5, 4, 5, 3, 2, 5, 3, 2
  |5, 4, 3, 3, 1, 4, 5, 4, 5, 3, 5, 1, 5, 3, 3
  |3, 3, 2, 2, 4, 2, 3, 5, 2, 2, 4, 2, 5, 5, 1
  |3, 5, 3, 5, 3, 2, 3, 2, 2, 1, 2, 2, 3, 2, 2
  |5, 2, 4, 4, 1, 4, 3, 3, 4, 3, 4, 5, 3, 2, 5
  |5, 5, 5, 3, 2, 5, 5, 4, 2, 4, 2, 1, 1, 1, 1
  |5, 5, 2, 2, 5, 3, 4, 2, 3, 3, 2, 2, 3, 3, 2
  |2, 4, 4, 3, 2, 4, 5, 5, 5, 2, 5, 5, 5, 2, 5
  |5, 5, 3, 1, 2, 5, 5, 4, 1, 5, 5, 4, 5, 5, 4
  |5, 2, 3, 1, 2, 4, 3, 5, 3, 3, 2, 3, 2, 1, 5
  |5, 5, 3, 5, 1, 5, 5, 2, 4, 2, 3, 4, 5, 5, 1
  |5, 3, 2, 4, 3, 1, 5, 4, 2, 4, 4, 5, 4, 3, 2
  |5, 2, 5, 3, 5, 5, 1, 5, 2, 5, 2, 1, 4, 3, 3
  |3, 3, 4, 3, 1, 1, 1, 3, 5, 3, 1, 1, 2, 2, 4
  |5, 5, 3, 1, 1, 1, 5, 5, 5, 5, 4, 5, 5, 3, 4
  |5, 5, 3, 4, 1, 1, 5, 2, 5, 4, 5, 4, 1, 3, 4
  |5, 3, 2, 1, 1, 1, 3, 5, 5, 5, 4, 2, 5, 1, 1
  |1, 3, 1, 5, 4, 1, 5, 3, 5, 5, 5, 4, 3, 3, 4
  |5, 1, 4, 1, 1, 4, 5, 3, 2, 3, 5, 5, 3, 4, 4
  |4, 2, 5, 1, 1, 4, 2, 4, 3, 5, 5, 3, 1, 5, 4
  |2, 1, 4, 5, 2, 1, 2, 5, 5, 5, 4, 4, 4, 3, 5
  |5, 4, 5, 5, 2, 4, 4, 3, 2, 4, 2, 5, 3, 2, 5
  |5, 2, 3, 3, 1, 3, 2, 2, 1, 2, 5, 4, 5, 5, 5
  |1, 4, 5, 4, 2, 3, 5, 5, 5, 5, 4, 3, 3, 2, 3
  |5, 5, 1, 1, 1, 4, 5, 4, 5, 5, 4, 5, 3, 5, 3
  |2, 5, 3, 5, 2, 1, 5, 4, 5, 3, 4, 2, 3, 2, 5
  |2, 5, 4, 5, 1, 5, 1, 4, 5, 2, 5, 2, 2, 5, 5
  |2, 4, 3, 1, 1, 4, 3, 5, 3, 5, 4, 3, 5, 2, 2
  |5, 2, 4, 5, 1, 1, 4, 4, 4, 3, 4, 4, 3, 5, 3
  |2, 4, 3, 3, 1, 4, 1, 5, 5, 5, 4, 4, 3, 3, 4
  |4, 2, 3, 1, 1, 4, 3, 3, 3, 1, 5, 2, 5, 2, 4
  |5, 5, 3, 5, 4, 3, 5, 5, 1, 2, 2, 5, 3, 3, 4
  |2, 3, 2, 1, 3, 3, 5, 4, 2, 4, 2, 2, 4, 3, 5
  |2, 1, 3, 3, 2, 2, 3, 1, 4, 3, 5, 3, 5, 5, 5
  |5, 2, 3, 1, 1, 1, 3, 2, 5, 5, 4, 5, 5, 3, 3
  |2, 2, 5, 4, 4, 5, 3, 4, 5, 3, 4, 2, 4, 5, 2
  |4, 5, 3, 5, 1, 1, 4, 2, 5, 4, 3, 1, 5, 1, 4
  |5, 4, 2, 1, 5, 5, 5, 4, 1, 4, 5, 2, 2, 3, 5
  |2, 2, 4, 1, 3, 2, 1, 4, 5, 5, 4, 4, 3, 2, 2
  |5, 3, 5, 5, 1, 3, 3, 4, 2, 4, 1, 5, 5, 5, 3
  |5, 3, 4, 3, 5, 1, 5, 2, 5, 5, 5, 1, 5, 3, 5
  |2, 5, 5, 1, 5, 2, 3, 4, 4, 3, 4, 4, 3, 2, 5
  |5, 1, 2, 5, 1, 2, 5, 5, 4, 4, 4, 5, 5, 2, 5
  |2, 5, 1, 1, 3, 1, 3, 5, 4, 5, 3, 4, 2, 3, 5
  |5, 3, 1, 4, 2, 5, 3, 1, 4, 2, 5, 5, 3, 3, 3
  |];
min_capacities = [5, 10, 10, 10, 20, 20, 5, 10, 10, 5, 5, 5, 5, 5, 5];
max_capacities = [10, 20, 20, 40, 40, 40, 15, 20, 20, 15, 10, 20, 20, 30, 10];
attendance_costs = [20, 20, 10, 30, 30, 30, 10, 10, 20, 5, 5, 5, 5, 10, 10];
parallel_limits = [2, 3, 2, 4, 4, 2, 2, 2, 3, 2, 2, 2, 2, 2, 2];
slots = 
 [{1, 4, 11, 12, 19},
  {1, 4, 7, 17, 18},
  {3, 6, 11, 12, 20},
  {7, 8, 10, 19, 20},
  {2, 4, 6, 12, 18},
  {3, 5, 8, 14, 17},
  {1, 11, 12, 14, 19},
  {7, 9, 10, 14, 20},
  {5, 6, 10, 12, 19},
  {5, 8, 12, 13, 19},
  {7, 10, 11, 12, 19},
  {7, 10, 11, 18, 20},
  {2, 10, 13, 14, 20},
  {6, 7, 8, 10, 20},
  {8, 13, 15, 18, 19},
  {1, 6, 8, 18, 19},
  {7, 8, 12, 19, 20},
  {2, 3, 9, 11, 20},
  {5, 11, 15, 16, 17},
  {3, 8, 11, 14, 19},
  {1, 5, 14, 16, 19},
  {3, 5, 6, 11, 20},
  {9, 15, 16, 19, 20},
  {4, 9, 14, 15, 19},
  {1, 2, 6, 17, 19},
  {4, 11, 13, 15, 17},
  {2, 3, 13, 14, 15},
  {4, 7, 8, 9, 11},
  {1, 3, 5, 12, 16},
  {3, 7, 8, 11, 14},
  {5, 11, 12, 15, 17},
  {1, 5, 12, 14, 17},
  {1, 5, 7, 8, 13},
  {7, 9, 10, 12, 14},
  {2, 9, 13, 19, 20},
  {1, 5, 11, 13, 16},
  {1, 4, 5, 8, 13},
  {2, 5, 8, 10, 19},
  {2, 4, 14, 15, 18},
  {1, 4, 6, 10, 16},
  {1, 2, 10, 12, 20},
  {8, 9, 10, 13, 16},
  {3, 7, 10, 14, 19},
  {9, 12, 13, 16, 18},
  {8, 12, 14, 16, 17},
  {1, 6, 7, 10, 18},
  {2, 9, 10, 11, 20},
  {2, 8, 13, 15, 20},
  {2, 4, 6, 8, 14},
  {7, 10, 12, 16, 20},
  {2, 12, 13, 18, 19},
  {1, 9, 10, 14, 16},
  {1, 2, 4, 17, 20},
  {2, 5, 7, 12, 20},
  {1, 4, 11, 15, 18},
  {9, 10, 14, 15, 16},
  {1, 4, 12, 17, 19},
  {1, 2, 3, 14, 15},
  {5, 7, 12, 19, 20},
  {4, 6, 10, 11, 18},
  {2, 5, 7, 9, 16},
  {7, 8, 17, 18, 20},
  {5, 10, 11, 15, 18},
  {5, 9, 14, 15, 17},
  {7, 10, 12, 18, 20},
  {1, 3, 11, 15, 16},
  {6, 8, 11, 12, 13},
  {2, 8, 9, 10, 20},
  {1, 2, 3, 11, 15},
  {1, 3, 7, 17, 20},
  {1, 3, 9, 16, 19},
  {4, 8, 11, 12, 20},
  {4, 5, 7, 10, 12},
  {1, 9, 13, 15, 18},
  {7, 9, 12, 16, 19},
  {6, 7, 11, 12, 14},
  {1, 3, 4, 17, 20},
  {1, 5, 7, 18, 19},
  {2, 3, 5, 14, 17},
  {5, 7, 8, 13, 15},
  {3, 7, 10, 13, 20},
  {3, 4, 5, 12, 13},
  {1, 6, 10, 15, 19},
  {5, 7, 13, 15, 20},
  {1, 4, 5, 6, 16},
  {7, 9, 12, 15, 17},
  {1, 2, 12, 16, 19},
  {1, 9, 12, 13, 18},
  {5, 9, 13, 16, 19},
  {4, 11, 12, 18, 19},
  {2, 9, 10, 14, 16},
  {3, 5, 11, 12, 20},
  {2, 4, 9, 10, 13},
  {5, 9, 10, 11, 13},
  {3, 6, 12, 16, 19},
  {8, 9, 13, 15, 20},
  {7, 9, 14, 17, 19},
  {2, 4, 6, 15, 17},
  {8, 9, 13, 14, 18},
  {2, 6, 8, 12, 20
  }];
